data/instances/vrp_files/train_47.vrp
NAME : 47
COMMENT : Generated instance No. 47
TYPE : CVRP
DIMENSION : 21
EDGE_WEIGHT_TYPE : EUC_2D
CAPACITY : 30
NODE_COORD_SECTION
 1 62 147
 2 23 898
 3 783 780
 4 457 398
 5 302 65
 6 228 246
 7 484 747
 8 473 57
 9 957 942
 10 785 991
 11 544 962
 12 75 365
 13 225 195
 14 140 622
 15 781 578
 16 146 811
 17 635 388
 18 674 259
 19 345 917
 20 290 469
 21 890 707
DEMAND_SECTION
1 0
2 5
3 4
4 4
5 9
6 8
7 6
8 1
9 2
10 6
11 2
12 10
13 5
14 5
15 6
16 6
17 6
18 2
19 10
20 3
21 6
DEPOT_SECTION
 1
 -1
EOF